35
1 0 3
2 0 14
2 1 9
3 0 26
3 1 27
3 2 22
4 0 44
4 1 21
4 2 20
4 3 19
5 0 6
5 1 40
5 2 44
5 3 35
5 4 44
6 0 11
6 1 21
6 2 24
6 3 38
6 4 4
6 5 9
7 0 31
7 1 48
7 2 17
7 3 43
7 4 36
7 5 37
7 6 39
8 0 5
8 1 44
8 2 6
8 3 29
8 4 16
8 5 36
8 6 2
8 7 18
9 0 22
9 1 13
9 2 34
9 3 3
9 4 7
9 5 34
9 6 27
9 7 42
9 8 25
10 0 10
10 1 8
10 2 16
10 3 45
10 4 8
10 5 48
10 6 40
10 7 8
10 8 25
10 9 26
11 0 46
11 1 32
11 2 6
11 3 5
11 4 17
11 5 8
11 6 22
11 7 16
11 8 10
11 9 41
11 10 39
12 0 19
12 1 17
12 2 5
12 3 43
12 4 5
12 5 38
12 6 49
12 7 37
12 8 40
12 9 32
12 10 31
12 11 47
13 0 34
13 1 49
13 2 4
13 3 38
13 4 8
13 5 32
13 6 13
13 7 40
13 8 34
13 9 15
13 10 31
13 11 4
13 12 29
14 0 37
14 1 33
14 2 40
14 3 2
14 4 23
14 5 14
14 6 6
14 7 23
14 8 13
14 9 14
14 10 34
14 11 35
14 12 32
14 13 31
15 0 40
15 1 38
15 2 7
15 3 23
15 4 22
15 5 11
15 6 27
15 7 49
15 8 25
15 9 20
15 10 8
15 11 9
15 12 50
15 13 37
15 14 10
16 0 35
16 1 8
16 2 18
16 3 50
16 4 48
16 5 26
16 6 31
16 7 44
16 8 19
16 9 20
16 10 38
16 11 29
16 12 22
16 13 37
16 14 31
16 15 36
17 0 27
17 1 36
17 2 26
17 3 29
17 4 19
17 5 41
17 6 41
17 7 22
17 8 14
17 9 25
17 10 8
17 11 1
17 12 4
17 13 8
17 14 41
17 15 35
17 16 15
18 0 19
18 1 7
18 2 46
18 3 11
18 4 37
18 5 41
18 6 29
18 7 7
18 8 13
18 9 16
18 10 22
18 11 13
18 12 31
18 13 4
18 14 43
18 15 22
18 16 33
18 17 47
19 0 32
19 1 11
19 2 36
19 3 5
19 4 10
19 5 33
19 6 42
19 7 35
19 8 46
19 9 48
19 10 43
19 11 15
19 12 7
19 13 38
19 14 6
19 15 25
19 16 8
19 17 41
19 18 5
20 0 13
20 1 11
20 2 17
20 3 8
20 4 11
20 5 18
20 6 48
20 7 18
20 8 34
20 9 33
20 10 34
20 11 9
20 12 46
20 13 5
20 14 37
20 15 11
20 16 37
20 17 15
20 18 18
20 19 17
21 0 23
21 1 26
21 2 4
21 3 4
21 4 7
21 5 5
21 6 37
21 7 3
21 8 17
21 9 49
21 10 39
21 11 31
21 12 39
21 13 41
21 14 45
21 15 15
21 16 45
21 17 16
21 18 34
21 19 19
21 20 44
22 0 17
22 1 27
22 2 2
22 3 48
22 4 49
22 5 50
22 6 37
22 7 41
22 8 4
22 9 21
22 10 29
22 11 27
22 12 17
22 13 18
22 14 8
22 15 19
22 16 10
22 17 31
22 18 50
22 19 13
22 20 12
22 21 3
23 0 30
23 1 43
23 2 38
23 3 19
23 4 27
23 5 34
23 6 31
23 7 49
23 8 17
23 9 20
23 10 33
23 11 41
23 12 6
23 13 20
23 14 11
23 15 41
23 16 48
23 17 15
23 18 32
23 19 8
23 20 35
23 21 2
23 22 33
24 0 43
24 1 29
24 2 25
24 3 3
24 4 43
24 5 44
24 6 49
24 7 16
24 8 7
24 9 27
24 10 50
24 11 30
24 12 12
24 13 16
24 14 3
24 15 36
24 16 11
24 17 6
24 18 29
24 19 42
24 20 4
24 21 18
24 22 47
24 23 40
25 0 6
25 1 34
25 2 20
25 3 39
25 4 31
25 5 19
25 6 24
25 7 20
25 8 2
25 9 1
25 10 41
25 11 12
25 12 26
25 13 31
25 14 38
25 15 47
25 16 14
25 17 3
25 18 9
25 19 4
25 20 20
25 21 28
25 22 8
25 23 13
25 24 44
26 0 31
26 1 41
26 2 23
26 3 9
26 4 30
26 5 49
26 6 23
26 7 18
26 8 40
26 9 48
26 10 44
26 11 44
26 12 36
26 13 10
26 14 3
26 15 14
26 16 9
26 17 47
26 18 2
26 19 28
26 20 1
26 21 41
26 22 7
26 23 50
26 24 38
26 25 13
27 0 47
27 1 26
27 2 24
27 3 10
27 4 43
27 5 5
27 6 39
27 7 49
27 8 19
27 9 27
27 10 31
27 11 6
27 12 38
27 13 49
27 14 6
27 15 44
27 16 38
27 17 28
27 18 6
27 19 42
27 20 32
27 21 15
27 22 33
27 23 4
27 24 28
27 25 15
27 26 35
28 0 33
28 1 9
28 2 24
28 3 9
28 4 16
28 5 44
28 6 24
28 7 33
28 8 38
28 9 3
28 10 48
28 11 21
28 12 40
28 13 29
28 14 36
28 15 43
28 16 23
28 17 43
28 18 36
28 19 20
28 20 29
28 21 35
28 22 7
28 23 13
28 24 30
28 25 25
28 26 23
28 27 47
29 0 28
29 1 24
29 2 41
29 3 49
29 4 28
29 5 21
29 6 44
29 7 35
29 8 8
29 9 22
29 10 38
29 11 42
29 12 16
29 13 15
29 14 49
29 15 7
29 16 14
29 17 8
29 18 33
29 19 24
29 20 1
29 21 27
29 22 6
29 23 4
29 24 16
29 25 14
29 26 22
29 27 47
29 28 39
30 0 15
30 1 12
30 2 13
30 3 10
30 4 1
30 5 17
30 6 40
30 7 49
30 8 11
30 9 47
30 10 19
30 11 30
30 12 45
30 13 41
30 14 43
30 15 30
30 16 34
30 17 23
30 18 13
30 19 6
30 20 9
30 21 11
30 22 9
30 23 12
30 24 1
30 25 42
30 26 18
30 27 31
30 28 11
30 29 49
31 0 50
31 1 7
31 2 46
31 3 33
31 4 25
31 5 34
31 6 39
31 7 32
31 8 32
31 9 44
31 10 44
31 11 8
31 12 49
31 13 50
31 14 13
31 15 29
31 16 26
31 17 48
31 18 2
31 19 49
31 20 36
31 21 4
31 22 30
31 23 25
31 24 9
31 25 13
31 26 44
31 27 7
31 28 50
31 29 36
31 30 22
32 0 19
32 1 10
32 2 15
32 3 14
32 4 31
32 5 7
32 6 47
32 7 40
32 8 25
32 9 19
32 10 11
32 11 26
32 12 18
32 13 37
32 14 29
32 15 1
32 16 39
32 17 29
32 18 44
32 19 35
32 20 34
32 21 48
32 22 22
32 23 8
32 24 13
32 25 1
32 26 23
32 27 1
32 28 12
32 29 11
32 30 49
32 31 41
33 0 42
33 1 12
33 2 6
33 3 18
33 4 21
33 5 3
33 6 33
33 7 15
33 8 2
33 9 12
33 10 17
33 11 50
33 12 1
33 13 20
33 14 44
33 15 9
33 16 18
33 17 28
33 18 14
33 19 24
33 20 38
33 21 44
33 22 17
33 23 17
33 24 19
33 25 30
33 26 37
33 27 24
33 28 38
33 29 36
33 30 9
33 31 10
33 32 21
34 0 26
34 1 9
34 2 3
34 3 50
34 4 30
34 5 31
34 6 34
34 7 11
34 8 35
34 9 16
34 10 43
34 11 37
34 12 1
34 13 6
34 14 7
34 15 46
34 16 39
34 17 47
34 18 29
34 19 41
34 20 33
34 21 13
34 22 8
34 23 9
34 24 47
34 25 49
34 26 23
34 27 4
34 28 22
34 29 5
34 30 12
34 31 29
34 32 6
34 33 5
